nbNodes = 12;
nbVehi = 5;
nbServi = 5;

e = 
 [|    0,  210,  246,  139,  166,  299,  254,  299,  286,  173,  451,    0,
 |    0,  202,  154,   87,  162,  327,  218,  450,  418,  383,   22,    0,
 |    0,  292,  232,  250,   43,  261,  211,  375,   25,  284,  417,    0,
 |    0,  431,  201,  153,   57,  271,  287,  371,  193,   92,   97,    0,
 |    0,  281,  351,  208,  172,  113,  141,  278,   13,   15,   37,    0,
 |];

l = 
 [| 480, 240, 291, 183, 207, 359, 306, 351, 328, 207, 484, 480,
 | 480, 258, 191, 141, 205, 377, 259, 492, 452, 420,  76, 480,
 | 480, 324, 290, 298,  77, 308, 246, 413,  65, 331, 461, 480,
 | 480, 481, 251, 200, 111, 305, 344, 401, 251, 123, 134, 480,
 | 480, 317, 411, 261, 215, 172, 181, 327,  57,  67,  93, 480,
 |];

a = 
 [|  1,  0,  0,  0,  0,
 |  1,  1,  0,  0,  0,
 |  0,  0,  1,  0,  0,
 |  1,  0,  0,  1,  1,
 |  1,  1,  1,  0,  1,
 |];

p = array3d(1..nbNodes,1..nbVehi,1..nbServi,
[  0,  0,  0,  0,  0,	  0,  0,  0,  0,  0,	  0,  0,  0,  0,  0,	  0,  0,  0,  0,  0,	  0,  0,  0,  0,  0,	
  9, 18, 13,  5, 28,	 20, 16, 22,  9, 29,	 12, 26, 24, 13, 25,	 29, 10, 15, 29, 20,	 10, 18,  7,  5, 22,	
 21, 12, 24, 26, 28,	 19,  5, 18, 29,  8,	 17, 19, 19, 11, 26,	 19, 20, 24, 15, 29,	 21, 16,  9,  6, 17,	
 27, 14,  5,  6, 14,	 25, 22, 24, 19, 19,	 24, 10, 21, 13, 11,	 24, 27, 25, 14, 10,	 23,  5, 26, 17, 17,	
 25,  9, 28,  6, 10,	 18,  5, 19, 18,  7,	  6, 13, 24, 25, 29,	 15, 21, 11,  9,  6,	 17, 28,  5, 15, 14,	
 11,  8, 14,  9, 21,	 26,  6, 27, 27,  7,	  9, 15,  8, 26,  5,	 12, 27, 16,  8, 24,	 17, 21, 15, 24, 25,	
 17, 11, 23, 17, 21,	  8, 25, 27, 19, 29,	 20, 16,  5, 19, 15,	 10, 23, 27, 15, 21,	 29, 22, 18, 15, 27,	
 14,  5, 18, 27, 24,	 13, 16,  7,  9,  5,	 26, 12, 26, 25, 28,	 27, 15, 16,  5, 29,	 26, 12, 24, 25, 22,	
 16, 25, 16,  6, 12,	 13, 16, 12, 29, 15,	  8, 12, 26, 13, 18,	 26,  9, 27, 24,  6,	 26, 24, 16, 12, 24,	
 17,  9,  6, 11, 29,	 25, 22, 26, 13, 24,	  9, 23, 12, 18, 22,	 22, 22,  7, 18,  7,	 20, 16, 13, 18, 11,	
 14, 14,  5, 25, 21,	 26, 12, 27, 29, 20,	 29, 26, 13, 25,  9,	  9,  6, 27, 16, 20,	 22,  8, 14, 24, 23,	
  0,  0,  0,  0,  0,	  0,  0,  0,  0,  0,	  0,  0,  0,  0,  0,	  0,  0,  0,  0,  0,	  0,  0,  0,  0,  0,	
]);

rs = 
[|true,true,true,true,true,
 |false,true,false,false,false,
 |false,false,false,false,true,
 |false,true,false,false,false,
 |false,true,false,false,false,
 |false,false,true,false,false,
 |true,false,false,false,false,
 |false,false,true,false,false,
 |false,false,false,false,true,
 |true,false,false,false,false,
 |false,true,false,false,false,
 |true,true,true,true,true,
 |];

d=[|0, 0, 15, 25, 8, 9, 25, 23, 7, 8, 20, 0, 
|0, 0, 15, 25, 8, 9, 25, 23, 7, 8, 20, 0, 
|15, 15, 0, 12, 18, 24, 36, 12, 20, 12, 18, 15, 
|25, 25, 12, 0, 30, 33, 40, 19, 31, 24, 18, 25, 
|8, 8, 18, 30, 0, 12, 30, 23, 4, 7, 28, 8, 
|9, 9, 24, 33, 12, 0, 18, 32, 8, 16, 24, 9, 
|25, 25, 36, 40, 30, 18, 0, 47, 26, 33, 24, 25, 
|23, 23, 12, 19, 23, 32, 47, 0, 26, 16, 31, 23, 
|7, 7, 20, 31, 4, 8, 26, 26, 0, 10, 26, 7, 
|8, 8, 12, 24, 7, 16, 33, 16, 10, 0, 25, 8, 
|20, 20, 18, 18, 28, 24, 24, 31, 26, 25, 0, 20, 
|0, 0, 15, 25, 8, 9, 25, 23, 7, 8, 20, 0, 
|];

%coord=[ (0,0), (0,0), (0,-15), (-8,-24), (8,2), (-2,9), (-20,15), (11,-21), (5,5), (7,-5), (-18,-9), (0,0), ];

